
  18    0


   0  10 2 3 4 5 6 13 14 15 16 17 
   3   3 12 9 8 
   3   3 11 8 7 
   2   3 9 8 7 
   7   2 10 7 
   4   1 7 
   6   1 18
   2   1 18
  10   1 18
   1   1 18
   5   1 18
   6   1 18
   3   1 18
   3   1 18
   3   1 18
   2   1 18
   7   1 18
   0   0 
